(set-info :source |printed by MathSAT|)
(declare-fun |!{$(in_main#0)<k>}| () Int)
(declare-fun |!{$(in_main#0)<k>}.next| () Int)
(declare-fun |!{$(in_main#0)<k#1>}| () Int)
(declare-fun |!{$(in_main#0)<k#1>}.next| () Int)
(declare-fun |!{$(in_main#0)<max>}| () Int)
(declare-fun |!{$(in_main#0)<max>}.next| () Int)
(declare-fun |!{%memaddr}| () Int)
(declare-fun |!{%memaddr}.next| () Int)
(declare-fun |!{%mem.0}| () (Array Int Int))
(declare-fun |!{%mem.0}.next| () (Array Int Int))
(declare-fun |!{$(in_main#0)<N>}| () Int)
(declare-fun |!{$(in_main#0)<N>}.next| () Int)
(declare-fun |!{$(in_main#0)<&array>}| () Int)
(declare-fun |!{$(in_main#0)<&array>}.next| () Int)
(declare-fun |!{$(in_main#0)<$(in___VERIFIER_nondet_int#1)<h#<__VERIFIER_nondet_int.return>>>}| () Int)
(declare-fun |!{$(in_main#0)<$(in___VERIFIER_nondet_int#3)<h#<__VERIFIER_nondet_int.return>>>}| () Int)
(declare-fun |!{$(in_main#0)<$(in_rec_array_max_left#4)<$temp.1>>}| () Int)
(declare-fun |!{$(in_main#0)<$(in_rec_array_max_left#4)<max>>}| () Int)
(declare-fun |!{$(in_main#0)<$(in_rec_array_max_left#4)<$tmp>>}| () Int)
(declare-fun |!{$(in_main#0)<$(in_rec_array_max_left#4)<$(in_rec_array_max_right#0)<$temp.1>>>}| () Int)
(declare-fun |!{$(in_main#0)<$(in_rec_array_max_left#4)<$(in_rec_array_max_right#0)<max>>>}| () Int)
(declare-fun |!{$(in_main#0)<$(in_rec_array_max_left#4)<$(in_rec_array_max_right#0)<$tmp>>>}| () Int)
(declare-fun |!{$(in_main#0)<$(in_rec_array_max_left#4)<$(in_rec_array_max_right#0)<$(in_rec_array_max_left#0)<$temp.1>>>>}| () Int)
(declare-fun |!{$(in_main#0)<$(in_rec_array_max_left#4)<$(in_rec_array_max_right#0)<$(in_rec_array_max_left#0)<max>>>>}| () Int)
(declare-fun |!{$(in_main#0)<$(in_rec_array_max_left#4)<$(in_rec_array_max_right#0)<$(in_rec_array_max_left#0)<$tmp>>>>}| () Int)
(declare-fun |!{$(in_main#0)<$(in_rec_array_max_left#4)<$(in_rec_array_max_right#0)<$(in_rec_array_max_left#0)<$(in_rec_array_max_right#0)<$temp.1>>>>>}| () Int)
(declare-fun |!{$(in_main#0)<$(in_rec_array_max_left#4)<$(in_rec_array_max_right#0)<$(in_rec_array_max_left#0)<$(in_rec_array_max_right#0)<max>>>>>}| () Int)
(declare-fun |!{$(in_main#0)<$(in_rec_array_max_left#4)<$(in_rec_array_max_right#0)<$(in_rec_array_max_left#0)<$(in_rec_array_max_right#0)<$tmp>>>>>}| () Int)
(declare-fun !pc () Int)
(declare-fun !pc.next () Int)
(declare-fun |%{$(in_main#0)<k#1>}#1| () Int)
(declare-fun |%{$(in_main#0)<max>}#1| () Int)
(declare-fun rec_array_max_left<0> (Int Int Int Int) Int)
(declare-fun |%{$(in_main#0)<$(in_rec_array_max_left#4)<$(in_rec_array_max_right#0)<$(in_rec_array_max_left#0)<$(in_rec_array_max_right#0)<rec_array_max_right.return>>>>>}#3| () Int)
(declare-fun |%{$(in_main#0)<$(in_rec_array_max_left#4)<$(in_rec_array_max_right#0)<$(in_rec_array_max_left#0)<$(in_rec_array_max_right#0)<$temp.1>>>>>}#3| () Int)
(declare-fun |%{$(in_main#0)<$(in_rec_array_max_left#4)<$(in_rec_array_max_right#0)<$(in_rec_array_max_left#0)<$(in_rec_array_max_right#0)<max>>>>>}#3| () Int)
(declare-fun |%{$(in_main#0)<$(in_rec_array_max_left#4)<$(in_rec_array_max_right#0)<$(in_rec_array_max_left#0)<$(in_rec_array_max_right#0)<$tmp>>>>>}#3| () Int)
(declare-fun |%{$(in_main#0)<$(in_rec_array_max_left#4)<$(in_rec_array_max_right#0)<$(in_rec_array_max_left#0)<rec_array_max_left.return>>>>}#3| () Int)
(declare-fun |%{$(in_main#0)<$(in_rec_array_max_left#4)<$(in_rec_array_max_right#0)<$(in_rec_array_max_left#0)<$temp.1>>>>}#3| () Int)
(declare-fun |%{$(in_main#0)<$(in_rec_array_max_left#4)<$(in_rec_array_max_right#0)<$(in_rec_array_max_left#0)<max>>>>}#3| () Int)
(declare-fun |%{$(in_main#0)<$(in_rec_array_max_left#4)<$(in_rec_array_max_right#0)<$(in_rec_array_max_left#0)<$tmp>>>>}#3| () Int)
(declare-fun |%{$(in_main#0)<$(in_rec_array_max_left#4)<$(in_rec_array_max_right#0)<rec_array_max_right.return>>>}#3| () Int)
(declare-fun |%{$(in_main#0)<$(in_rec_array_max_left#4)<$(in_rec_array_max_right#0)<$temp.1>>>}#3| () Int)
(declare-fun |%{$(in_main#0)<$(in_rec_array_max_left#4)<$(in_rec_array_max_right#0)<max>>>}#3| () Int)
(declare-fun |%{$(in_main#0)<$(in_rec_array_max_left#4)<$(in_rec_array_max_right#0)<$tmp>>>}#3| () Int)
(declare-fun |%{$(in_main#0)<$(in_rec_array_max_left#4)<rec_array_max_left.return>>}#3| () Int)
(declare-fun |%{$(in_main#0)<$(in_rec_array_max_left#4)<$temp.1>>}#3| () Int)
(declare-fun |%{$(in_main#0)<$(in_rec_array_max_left#4)<max>>}#3| () Int)
(declare-fun |%{$(in_main#0)<$(in_rec_array_max_left#4)<$tmp>>}#3| () Int)
(define-fun .def_77 () Int (! !pc :next !pc.next))
(define-fun .def_80 () Bool (! (= .def_77 2) :init true))
(define-fun .def_428 () Bool (= .def_77 49))
(define-fun .def_165 () Bool (= !pc.next 230))
(define-fun .def_431 () Bool (and .def_165 .def_428))
(define-fun .def_420 () Bool (= |!{$(in_main#0)<max>}.next| |%{$(in_main#0)<$(in_rec_array_max_left#4)<rec_array_max_left.return>>}#3|))
(define-fun .def_418 () Bool (= |!{$(in_main#0)<k#1>}.next| 0))
(define-fun .def_8 () Int (! |!{$(in_main#0)<k>}| :next |!{$(in_main#0)<k>}.next|))
(define-fun .def_126 () Bool (= .def_8 |!{$(in_main#0)<k>}.next|))
(define-fun .def_419 () Bool (and .def_126 .def_418))
(define-fun .def_421 () Bool (and .def_419 .def_420))
(define-fun .def_14 () Int (! |!{%memaddr}| :next |!{%memaddr}.next|))
(define-fun .def_132 () Bool (= .def_14 |!{%memaddr}.next|))
(define-fun .def_422 () Bool (and .def_132 .def_421))
(define-fun .def_16 () (Array Int Int) (! |!{%mem.0}| :next |!{%mem.0}.next|))
(define-fun .def_104 () Bool (= .def_16 |!{%mem.0}.next|))
(define-fun .def_423 () Bool (and .def_104 .def_422))
(define-fun .def_18 () Int (! |!{$(in_main#0)<N>}| :next |!{$(in_main#0)<N>}.next|))
(define-fun .def_135 () Bool (= .def_18 |!{$(in_main#0)<N>}.next|))
(define-fun .def_424 () Bool (and .def_135 .def_423))
(define-fun .def_20 () Int (! |!{$(in_main#0)<&array>}| :next |!{$(in_main#0)<&array>}.next|))
(define-fun .def_137 () Bool (= .def_20 |!{$(in_main#0)<&array>}.next|))
(define-fun .def_425 () Bool (and .def_137 .def_424))
(define-fun .def_400 () Bool (= |!{$(in_main#0)<$(in_rec_array_max_left#4)<$tmp>>}| |%{$(in_main#0)<$(in_rec_array_max_left#4)<$tmp>>}#3|))
(define-fun .def_394 () Bool (= |!{$(in_main#0)<$(in_rec_array_max_left#4)<max>>}| |%{$(in_main#0)<$(in_rec_array_max_left#4)<max>>}#3|))
(define-fun .def_388 () Bool (= |!{$(in_main#0)<$(in_rec_array_max_left#4)<$temp.1>>}| |%{$(in_main#0)<$(in_rec_array_max_left#4)<$temp.1>>}#3|))
(define-fun .def_187 () Bool (<= 1 .def_18))
(define-fun .def_184 () Bool (<= .def_18 1))
(define-fun .def_185 () Bool (not .def_184))
(define-fun .def_182 () Bool (<= .def_18 0))
(define-fun .def_183 () Bool (not .def_182))
(define-fun .def_186 () Bool (and .def_183 .def_185))
(define-fun .def_188 () Bool (and .def_186 .def_187))
(define-fun .def_384 () Bool (not .def_188))
(define-fun .def_390 () Bool (and .def_384 .def_388))
(define-fun .def_396 () Bool (and .def_390 .def_394))
(define-fun .def_402 () Bool (and .def_396 .def_400))
(define-fun .def_365 () Int (select .def_16 .def_20))
(define-fun .def_376 () Bool (= .def_365 |%{$(in_main#0)<$(in_rec_array_max_left#4)<rec_array_max_left.return>>}#3|))
(define-fun .def_404 () Bool (and .def_376 .def_402))
(define-fun .def_401 () Bool (= |%{$(in_main#0)<$(in_rec_array_max_left#4)<$(in_rec_array_max_right#0)<rec_array_max_right.return>>>}#3| |%{$(in_main#0)<$(in_rec_array_max_left#4)<$tmp>>}#3|))
(define-fun .def_395 () Bool (= |%{$(in_main#0)<$(in_rec_array_max_left#4)<$(in_rec_array_max_right#0)<rec_array_max_right.return>>>}#3| |%{$(in_main#0)<$(in_rec_array_max_left#4)<max>>}#3|))
(define-fun .def_389 () Bool (= |%{$(in_main#0)<$(in_rec_array_max_left#4)<$(in_rec_array_max_right#0)<rec_array_max_right.return>>>}#3| |%{$(in_main#0)<$(in_rec_array_max_left#4)<$temp.1>>}#3|))
(define-fun .def_377 () Bool (= |%{$(in_main#0)<$(in_rec_array_max_left#4)<$(in_rec_array_max_right#0)<rec_array_max_right.return>>>}#3| |%{$(in_main#0)<$(in_rec_array_max_left#4)<rec_array_max_left.return>>}#3|))
(define-fun .def_366 () Bool (<= .def_365 |%{$(in_main#0)<$(in_rec_array_max_left#4)<$(in_rec_array_max_right#0)<rec_array_max_right.return>>>}#3|))
(define-fun .def_379 () Bool (and .def_366 .def_377))
(define-fun .def_367 () Bool (not .def_366))
(define-fun .def_378 () Bool (and .def_367 .def_376))
(define-fun .def_380 () Bool (or .def_378 .def_379))
(define-fun .def_357 () Bool (= |!{$(in_main#0)<$(in_rec_array_max_left#4)<$(in_rec_array_max_right#0)<$tmp>>>}| |%{$(in_main#0)<$(in_rec_array_max_left#4)<$(in_rec_array_max_right#0)<$tmp>>>}#3|))
(define-fun .def_351 () Bool (= |!{$(in_main#0)<$(in_rec_array_max_left#4)<$(in_rec_array_max_right#0)<max>>>}| |%{$(in_main#0)<$(in_rec_array_max_left#4)<$(in_rec_array_max_right#0)<max>>>}#3|))
(define-fun .def_345 () Bool (= |!{$(in_main#0)<$(in_rec_array_max_left#4)<$(in_rec_array_max_right#0)<$temp.1>>>}| |%{$(in_main#0)<$(in_rec_array_max_left#4)<$(in_rec_array_max_right#0)<$temp.1>>>}#3|))
(define-fun .def_189 () Bool (<= 2 .def_18))
(define-fun .def_190 () Bool (and .def_185 .def_189))
(define-fun .def_340 () Bool (not .def_190))
(define-fun .def_347 () Bool (and .def_340 .def_345))
(define-fun .def_353 () Bool (and .def_347 .def_351))
(define-fun .def_359 () Bool (and .def_353 .def_357))
(define-fun .def_206 () Int (+ .def_18 .def_20))
(define-fun .def_317 () Int (+ .def_206 (- 1)))
(define-fun .def_318 () Int (select .def_16 .def_317))
(define-fun .def_331 () Bool (= .def_318 |%{$(in_main#0)<$(in_rec_array_max_left#4)<$(in_rec_array_max_right#0)<rec_array_max_right.return>>>}#3|))
(define-fun .def_361 () Bool (and .def_331 .def_359))
(define-fun .def_358 () Bool (= |%{$(in_main#0)<$(in_rec_array_max_left#4)<$(in_rec_array_max_right#0)<$(in_rec_array_max_left#0)<rec_array_max_left.return>>>>}#3| |%{$(in_main#0)<$(in_rec_array_max_left#4)<$(in_rec_array_max_right#0)<$tmp>>>}#3|))
(define-fun .def_352 () Bool (= |%{$(in_main#0)<$(in_rec_array_max_left#4)<$(in_rec_array_max_right#0)<$(in_rec_array_max_left#0)<rec_array_max_left.return>>>>}#3| |%{$(in_main#0)<$(in_rec_array_max_left#4)<$(in_rec_array_max_right#0)<max>>>}#3|))
(define-fun .def_346 () Bool (= |%{$(in_main#0)<$(in_rec_array_max_left#4)<$(in_rec_array_max_right#0)<$(in_rec_array_max_left#0)<rec_array_max_left.return>>>>}#3| |%{$(in_main#0)<$(in_rec_array_max_left#4)<$(in_rec_array_max_right#0)<$temp.1>>>}#3|))
(define-fun .def_332 () Bool (= |%{$(in_main#0)<$(in_rec_array_max_left#4)<$(in_rec_array_max_right#0)<$(in_rec_array_max_left#0)<rec_array_max_left.return>>>>}#3| |%{$(in_main#0)<$(in_rec_array_max_left#4)<$(in_rec_array_max_right#0)<rec_array_max_right.return>>>}#3|))
(define-fun .def_319 () Bool (<= .def_318 |%{$(in_main#0)<$(in_rec_array_max_left#4)<$(in_rec_array_max_right#0)<$(in_rec_array_max_left#0)<rec_array_max_left.return>>>>}#3|))
(define-fun .def_334 () Bool (and .def_319 .def_332))
(define-fun .def_320 () Bool (not .def_319))
(define-fun .def_333 () Bool (and .def_320 .def_331))
(define-fun .def_335 () Bool (or .def_333 .def_334))
(define-fun .def_307 () Bool (= |!{$(in_main#0)<$(in_rec_array_max_left#4)<$(in_rec_array_max_right#0)<$(in_rec_array_max_left#0)<$tmp>>>>}| |%{$(in_main#0)<$(in_rec_array_max_left#4)<$(in_rec_array_max_right#0)<$(in_rec_array_max_left#0)<$tmp>>>>}#3|))
(define-fun .def_301 () Bool (= |!{$(in_main#0)<$(in_rec_array_max_left#4)<$(in_rec_array_max_right#0)<$(in_rec_array_max_left#0)<max>>>>}| |%{$(in_main#0)<$(in_rec_array_max_left#4)<$(in_rec_array_max_right#0)<$(in_rec_array_max_left#0)<max>>>>}#3|))
(define-fun .def_295 () Bool (= |!{$(in_main#0)<$(in_rec_array_max_left#4)<$(in_rec_array_max_right#0)<$(in_rec_array_max_left#0)<$temp.1>>>>}| |%{$(in_main#0)<$(in_rec_array_max_left#4)<$(in_rec_array_max_right#0)<$(in_rec_array_max_left#0)<$temp.1>>>>}#3|))
(define-fun .def_196 () Bool (<= 3 .def_18))
(define-fun .def_192 () Bool (<= .def_18 2))
(define-fun .def_193 () Bool (not .def_192))
(define-fun .def_194 () Bool (and .def_185 .def_193))
(define-fun .def_197 () Bool (and .def_194 .def_196))
(define-fun .def_289 () Bool (not .def_197))
(define-fun .def_297 () Bool (and .def_289 .def_295))
(define-fun .def_303 () Bool (and .def_297 .def_301))
(define-fun .def_309 () Bool (and .def_303 .def_307))
(define-fun .def_263 () Int (+ .def_20 1))
(define-fun .def_264 () Int (select .def_16 .def_263))
(define-fun .def_279 () Bool (= .def_264 |%{$(in_main#0)<$(in_rec_array_max_left#4)<$(in_rec_array_max_right#0)<$(in_rec_array_max_left#0)<rec_array_max_left.return>>>>}#3|))
(define-fun .def_311 () Bool (and .def_279 .def_309))
(define-fun .def_308 () Bool (= |%{$(in_main#0)<$(in_rec_array_max_left#4)<$(in_rec_array_max_right#0)<$(in_rec_array_max_left#0)<$(in_rec_array_max_right#0)<rec_array_max_right.return>>>>>}#3| |%{$(in_main#0)<$(in_rec_array_max_left#4)<$(in_rec_array_max_right#0)<$(in_rec_array_max_left#0)<$tmp>>>>}#3|))
(define-fun .def_302 () Bool (= |%{$(in_main#0)<$(in_rec_array_max_left#4)<$(in_rec_array_max_right#0)<$(in_rec_array_max_left#0)<$(in_rec_array_max_right#0)<rec_array_max_right.return>>>>>}#3| |%{$(in_main#0)<$(in_rec_array_max_left#4)<$(in_rec_array_max_right#0)<$(in_rec_array_max_left#0)<max>>>>}#3|))
(define-fun .def_296 () Bool (= |%{$(in_main#0)<$(in_rec_array_max_left#4)<$(in_rec_array_max_right#0)<$(in_rec_array_max_left#0)<$(in_rec_array_max_right#0)<rec_array_max_right.return>>>>>}#3| |%{$(in_main#0)<$(in_rec_array_max_left#4)<$(in_rec_array_max_right#0)<$(in_rec_array_max_left#0)<$temp.1>>>>}#3|))
(define-fun .def_280 () Bool (= |%{$(in_main#0)<$(in_rec_array_max_left#4)<$(in_rec_array_max_right#0)<$(in_rec_array_max_left#0)<$(in_rec_array_max_right#0)<rec_array_max_right.return>>>>>}#3| |%{$(in_main#0)<$(in_rec_array_max_left#4)<$(in_rec_array_max_right#0)<$(in_rec_array_max_left#0)<rec_array_max_left.return>>>>}#3|))
(define-fun .def_265 () Bool (<= .def_264 |%{$(in_main#0)<$(in_rec_array_max_left#4)<$(in_rec_array_max_right#0)<$(in_rec_array_max_left#0)<$(in_rec_array_max_right#0)<rec_array_max_right.return>>>>>}#3|))
(define-fun .def_282 () Bool (and .def_265 .def_280))
(define-fun .def_266 () Bool (not .def_265))
(define-fun .def_281 () Bool (and .def_266 .def_279))
(define-fun .def_283 () Bool (or .def_281 .def_282))
(define-fun .def_253 () Bool (= |!{$(in_main#0)<$(in_rec_array_max_left#4)<$(in_rec_array_max_right#0)<$(in_rec_array_max_left#0)<$(in_rec_array_max_right#0)<$tmp>>>>>}| |%{$(in_main#0)<$(in_rec_array_max_left#4)<$(in_rec_array_max_right#0)<$(in_rec_array_max_left#0)<$(in_rec_array_max_right#0)<$tmp>>>>>}#3|))
(define-fun .def_247 () Bool (= |!{$(in_main#0)<$(in_rec_array_max_left#4)<$(in_rec_array_max_right#0)<$(in_rec_array_max_left#0)<$(in_rec_array_max_right#0)<max>>>>>}| |%{$(in_main#0)<$(in_rec_array_max_left#4)<$(in_rec_array_max_right#0)<$(in_rec_array_max_left#0)<$(in_rec_array_max_right#0)<max>>>>>}#3|))
(define-fun .def_241 () Bool (= |!{$(in_main#0)<$(in_rec_array_max_left#4)<$(in_rec_array_max_right#0)<$(in_rec_array_max_left#0)<$(in_rec_array_max_right#0)<$temp.1>>>>>}| |%{$(in_main#0)<$(in_rec_array_max_left#4)<$(in_rec_array_max_right#0)<$(in_rec_array_max_left#0)<$(in_rec_array_max_right#0)<$temp.1>>>>>}#3|))
(define-fun .def_199 () Bool (<= 4 .def_18))
(define-fun .def_200 () Bool (and .def_193 .def_199))
(define-fun .def_234 () Bool (not .def_200))
(define-fun .def_243 () Bool (and .def_234 .def_241))
(define-fun .def_249 () Bool (and .def_243 .def_247))
(define-fun .def_255 () Bool (and .def_249 .def_253))
(define-fun .def_208 () Int (+ .def_206 (- 2)))
(define-fun .def_209 () Int (select .def_16 .def_208))
(define-fun .def_224 () Bool (= .def_209 |%{$(in_main#0)<$(in_rec_array_max_left#4)<$(in_rec_array_max_right#0)<$(in_rec_array_max_left#0)<$(in_rec_array_max_right#0)<rec_array_max_right.return>>>>>}#3|))
(define-fun .def_257 () Bool (and .def_224 .def_255))
(define-fun .def_203 () Int (+ .def_18 (- 3)))
(define-fun .def_204 () Int (rec_array_max_left<0> .def_20 2 .def_203 .def_18))
(define-fun .def_254 () Bool (= .def_204 |%{$(in_main#0)<$(in_rec_array_max_left#4)<$(in_rec_array_max_right#0)<$(in_rec_array_max_left#0)<$(in_rec_array_max_right#0)<$tmp>>>>>}#3|))
(define-fun .def_248 () Bool (= .def_204 |%{$(in_main#0)<$(in_rec_array_max_left#4)<$(in_rec_array_max_right#0)<$(in_rec_array_max_left#0)<$(in_rec_array_max_right#0)<max>>>>>}#3|))
(define-fun .def_242 () Bool (= .def_204 |%{$(in_main#0)<$(in_rec_array_max_left#4)<$(in_rec_array_max_right#0)<$(in_rec_array_max_left#0)<$(in_rec_array_max_right#0)<$temp.1>>>>>}#3|))
(define-fun .def_225 () Bool (= .def_204 |%{$(in_main#0)<$(in_rec_array_max_left#4)<$(in_rec_array_max_right#0)<$(in_rec_array_max_left#0)<$(in_rec_array_max_right#0)<rec_array_max_right.return>>>>>}#3|))
(define-fun .def_210 () Bool (<= .def_209 .def_204))
(define-fun .def_227 () Bool (and .def_210 .def_225))
(define-fun .def_211 () Bool (not .def_210))
(define-fun .def_226 () Bool (and .def_211 .def_224))
(define-fun .def_228 () Bool (or .def_226 .def_227))
(define-fun .def_229 () Bool (and .def_200 .def_228))
(define-fun .def_244 () Bool (and .def_229 .def_242))
(define-fun .def_250 () Bool (and .def_244 .def_248))
(define-fun .def_256 () Bool (and .def_250 .def_254))
(define-fun .def_258 () Bool (or .def_256 .def_257))
(define-fun .def_284 () Bool (and .def_258 .def_283))
(define-fun .def_285 () Bool (and .def_197 .def_284))
(define-fun .def_298 () Bool (and .def_285 .def_296))
(define-fun .def_304 () Bool (and .def_298 .def_302))
(define-fun .def_310 () Bool (and .def_304 .def_308))
(define-fun .def_312 () Bool (or .def_310 .def_311))
(define-fun .def_336 () Bool (and .def_312 .def_335))
(define-fun .def_337 () Bool (and .def_190 .def_336))
(define-fun .def_348 () Bool (and .def_337 .def_346))
(define-fun .def_354 () Bool (and .def_348 .def_352))
(define-fun .def_360 () Bool (and .def_354 .def_358))
(define-fun .def_362 () Bool (or .def_360 .def_361))
(define-fun .def_381 () Bool (and .def_362 .def_380))
(define-fun .def_382 () Bool (and .def_188 .def_381))
(define-fun .def_391 () Bool (and .def_382 .def_389))
(define-fun .def_397 () Bool (and .def_391 .def_395))
(define-fun .def_403 () Bool (and .def_397 .def_401))
(define-fun .def_405 () Bool (or .def_403 .def_404))
(define-fun .def_426 () Bool (and .def_405 .def_425))
(define-fun .def_176 () Bool (<= .def_18 .def_8))
(define-fun .def_427 () Bool (and .def_176 .def_426))
(define-fun .def_432 () Bool (and .def_427 .def_431))
(define-fun .def_112 () Bool (= !pc.next 49))
(define-fun .def_429 () Bool (and .def_112 .def_428))
(define-fun .def_178 () Int (+ .def_8 .def_20))
(define-fun .def_179 () (Array Int Int) (store .def_16 .def_178 |!{$(in_main#0)<$(in___VERIFIER_nondet_int#3)<h#<__VERIFIER_nondet_int.return>>>}|))
(define-fun .def_413 () Bool (= |!{%mem.0}.next| .def_179))
(define-fun .def_407 () Int (* (- 1) |!{$(in_main#0)<k>}.next|))
(define-fun .def_408 () Int (+ .def_8 .def_407))
(define-fun .def_409 () Bool (= .def_408 (- 1)))
(define-fun .def_10 () Int (! |!{$(in_main#0)<k#1>}| :next |!{$(in_main#0)<k#1>}.next|))
(define-fun .def_128 () Bool (= .def_10 |!{$(in_main#0)<k#1>}.next|))
(define-fun .def_410 () Bool (and .def_128 .def_409))
(define-fun .def_12 () Int (! |!{$(in_main#0)<max>}| :next |!{$(in_main#0)<max>}.next|))
(define-fun .def_130 () Bool (= .def_12 |!{$(in_main#0)<max>}.next|))
(define-fun .def_411 () Bool (and .def_130 .def_410))
(define-fun .def_412 () Bool (and .def_132 .def_411))
(define-fun .def_414 () Bool (and .def_412 .def_413))
(define-fun .def_415 () Bool (and .def_135 .def_414))
(define-fun .def_416 () Bool (and .def_137 .def_415))
(define-fun .def_177 () Bool (not .def_176))
(define-fun .def_417 () Bool (and .def_177 .def_416))
(define-fun .def_430 () Bool (and .def_417 .def_429))
(define-fun .def_433 () Bool (or .def_430 .def_432))
(define-fun .def_169 () Bool (= !pc.next 0))
(define-fun .def_160 () Bool (= .def_77 230))
(define-fun .def_170 () Bool (and .def_160 .def_169))
(define-fun .def_115 () Bool (<= .def_18 .def_10))
(define-fun .def_152 () Bool (and .def_115 .def_126))
(define-fun .def_153 () Bool (and .def_128 .def_152))
(define-fun .def_154 () Bool (and .def_130 .def_153))
(define-fun .def_155 () Bool (and .def_132 .def_154))
(define-fun .def_156 () Bool (and .def_104 .def_155))
(define-fun .def_157 () Bool (and .def_135 .def_156))
(define-fun .def_158 () Bool (and .def_137 .def_157))
(define-fun .def_171 () Bool (and .def_158 .def_170))
(define-fun .def_166 () Bool (and .def_160 .def_165))
(define-fun .def_141 () Int (* (- 1) |!{$(in_main#0)<k#1>}.next|))
(define-fun .def_142 () Int (+ .def_10 .def_141))
(define-fun .def_143 () Bool (= .def_142 (- 1)))
(define-fun .def_144 () Bool (and .def_126 .def_143))
(define-fun .def_145 () Bool (and .def_130 .def_144))
(define-fun .def_146 () Bool (and .def_132 .def_145))
(define-fun .def_147 () Bool (and .def_104 .def_146))
(define-fun .def_148 () Bool (and .def_135 .def_147))
(define-fun .def_149 () Bool (and .def_137 .def_148))
(define-fun .def_117 () Int (+ .def_10 .def_20))
(define-fun .def_118 () Int (select .def_16 .def_117))
(define-fun .def_119 () Bool (<= .def_118 .def_12))
(define-fun .def_120 () Int (ite .def_119 1 0))
(define-fun .def_121 () Bool (= .def_120 0))
(define-fun .def_122 () Bool (not .def_121))
(define-fun .def_150 () Bool (and .def_122 .def_149))
(define-fun .def_116 () Bool (not .def_115))
(define-fun .def_151 () Bool (and .def_116 .def_150))
(define-fun .def_167 () Bool (and .def_151 .def_166))
(define-fun .def_162 () Bool (= !pc.next 250))
(define-fun .def_163 () Bool (and .def_160 .def_162))
(define-fun .def_127 () Bool (and .def_121 .def_126))
(define-fun .def_129 () Bool (and .def_127 .def_128))
(define-fun .def_131 () Bool (and .def_129 .def_130))
(define-fun .def_133 () Bool (and .def_131 .def_132))
(define-fun .def_134 () Bool (and .def_104 .def_133))
(define-fun .def_136 () Bool (and .def_134 .def_135))
(define-fun .def_138 () Bool (and .def_136 .def_137))
(define-fun .def_139 () Bool (and .def_116 .def_138))
(define-fun .def_164 () Bool (and .def_139 .def_163))
(define-fun .def_168 () Bool (or .def_164 .def_167))
(define-fun .def_172 () Bool (or .def_168 .def_171))
(define-fun .def_113 () Bool (and .def_80 .def_112))
(define-fun .def_108 () Bool (= |!{$(in_main#0)<&array>}.next| 1))
(define-fun .def_106 () Bool (= |!{$(in_main#0)<N>}.next| |!{$(in_main#0)<$(in___VERIFIER_nondet_int#1)<h#<__VERIFIER_nondet_int.return>>>}|))
(define-fun .def_102 () Bool (= |!{%memaddr}.next| 2))
(define-fun .def_100 () Bool (= |!{$(in_main#0)<max>}.next| |%{$(in_main#0)<max>}#1|))
(define-fun .def_98 () Bool (= |!{$(in_main#0)<k#1>}.next| |%{$(in_main#0)<k#1>}#1|))
(define-fun .def_97 () Bool (= |!{$(in_main#0)<k>}.next| 0))
(define-fun .def_99 () Bool (and .def_97 .def_98))
(define-fun .def_101 () Bool (and .def_99 .def_100))
(define-fun .def_103 () Bool (and .def_101 .def_102))
(define-fun .def_105 () Bool (and .def_103 .def_104))
(define-fun .def_107 () Bool (and .def_105 .def_106))
(define-fun .def_109 () Bool (and .def_107 .def_108))
(define-fun .def_92 () Bool (<= |!{$(in_main#0)<$(in___VERIFIER_nondet_int#1)<h#<__VERIFIER_nondet_int.return>>>}| 0))
(define-fun .def_93 () Bool (not .def_92))
(define-fun .def_94 () Int (ite .def_93 1 0))
(define-fun .def_95 () Bool (= .def_94 0))
(define-fun .def_96 () Bool (not .def_95))
(define-fun .def_110 () Bool (and .def_96 .def_109))
(define-fun .def_114 () Bool (and .def_110 .def_113))
(define-fun .def_173 () Bool (or .def_114 .def_172))
(define-fun .def_434 () Bool (! (or .def_173 .def_433) :trans true))
(define-fun .def_174 () Bool (= .def_77 250))
(define-fun .def_435 () Bool (! (not .def_174) :invar-property 0 :invar-property-name ||))
(assert true)
